(set-logic HORN)
(set-info :source |
    Benchmark: C_VC
    Output by Princess (http://www.philipp.ruemmer.org/princess.shtml)
|)
(set-info :status sat)
;===============================================================================
; Encoding of Heap sorts and operations
;-------------------------------------------------------------------------------
(define-sort Addr() Int)
(declare-datatypes ((AddrRange 0))
                   (((AddrRange (AddrRangeStart Addr) (AddrRangeSize Int)))))

(declare-datatypes ((HeapObject 0) (node 0))
                   (((O_Int (getInt Int)) (O_UInt (getUInt Int)) (O_Addr (getAddr Addr)) (O_node (getnode node)) (defObj))
                   ((node (next Addr) (val Int)))))
(declare-datatypes ((BatchAllocResHeap 0) (AllocResHeap 0) (Heap 0))
                   (((BatchAllocResHeap   (newBatchHeap Heap) (newAddrRange AddrRange)))
                   ((AllocResHeap   (newHeap Heap) (newAddr Addr)))
                    ((HeapCtor (HeapSize Int)
                               (HeapContents (Array Addr HeapObject))))))
(define-fun nullAddr  () Addr 0)
(define-fun validHeap     ((h Heap) (p Addr)) Bool
  (and (>= (HeapSize h) p) (> p 0)))
(define-fun emptyHeap () Heap (
  HeapCtor 0 (( as const (Array Addr HeapObject)) defObj)))
(define-fun readHeap ((h Heap) (p Addr)) HeapObject
  (ite (validHeap h p)
       (select (HeapContents h) p)
       defObj))
(define-fun writeHeap ((h Heap) (p Addr) (o HeapObject)) Heap
  (ite (validHeap h p)
       (HeapCtor (HeapSize h) (store (HeapContents h) p o))
       h))
(define-fun allocHeap   ((h Heap) (o HeapObject)) AllocResHeap
  (AllocResHeap (HeapCtor (+ 1 (HeapSize h))
                    (store (HeapContents h) (+ 1 (HeapSize h)) o))
          (+ 1 (HeapSize h))))
(define-fun Heap-eq     ((h1 Heap) (h2 Heap)) Bool
  (forall ((p Addr))
          (and (= (validHeap h1 p) (validHeap h2 p))
               (= (readHeap h1 p) (readHeap h2 p)))))
(define-fun nthAddrRange((ar AddrRange) (n Int)) Addr
  (ite (and (>= n 0) (< n (AddrRangeSize ar)))
       (+ (AddrRangeStart ar) n)
       nullAddr))
(define-fun withinHeap ((ar AddrRange ) (p Addr)) Bool
  (and (>= p (AddrRangeStart ar)) (< p (+ (AddrRangeStart ar) (AddrRangeSize ar)))))

(declare-fun batchAllocHeap     (Heap Heap HeapObject Int Int) Bool)
(declare-fun batchAllocPostHeap (Heap Heap HeapObject Int) Bool)

(assert (forall ((h1 Heap) (h2 Heap) (o HeapObject) (n1 Int) (n2 Int))
                (=> (and (> n2 0) (batchAllocHeap h1 h2 o n1 n2))
                   (batchAllocHeap h1 (newHeap (allocHeap h2 o)) o n1 (- n2 1)))))
(assert (forall ((h1 Heap) (h2 Heap) (o HeapObject) (n1 Int) (n2 Int))
                (=> (and (<= n2 0) (batchAllocHeap h1 h2 o n1 n2))
                   (batchAllocPostHeap h1 h2 o n1))))

(declare-fun batchWriteHeap     (Heap Heap Addr Addr HeapObject Int Int) Bool)
(declare-fun batchWritePostHeap (Heap Heap Addr HeapObject Int) Bool)

(assert (forall ((h1 Heap) (h2 Heap) (a1 Addr) (a2 Addr) (o HeapObject) (n1 Int) (n2 Int))
                (=> (and (> n2 0) (batchWriteHeap h1 h2 a1 a2 o n1 n2))
                   (batchWriteHeap h1 (writeHeap h2 a2 o) a1 (+ a2 1) o n1 (- n2 1)))))
(assert (forall ((h1 Heap) (h2 Heap) (a1 Addr) (a2 Addr) (o HeapObject) (n1 Int) (n2 Int))
                (=> (and (<= n2 0) (batchWriteHeap h1 h2 a1 a2 o n1 n2))
                   (batchWritePostHeap h1 h2 a1 o n1))))

;===============================================================================
(declare-fun inv_main10 (Heap Addr Int Int Addr) Bool)
(declare-fun inv_main11 (Heap Addr Int Int Addr) Bool)
(declare-fun inv_main13 (Heap Addr Int Int Addr) Bool)
(declare-fun inv_main14 (Heap Addr Int Int Addr) Bool)
(declare-fun inv_main17 (Heap Addr Int Int Addr) Bool)
(declare-fun inv_main2 (Heap) Bool)
(declare-fun inv_main21 (Heap Addr Int Int Addr) Bool)
(declare-fun inv_main22 (Heap Addr Int Int Addr) Bool)
(declare-fun inv_main23 (Heap Addr Int Int Addr) Bool)
(declare-fun inv_main26 (Heap Addr Int Int Addr) Bool)
(declare-fun inv_main27 (Heap Addr Int Int Addr) Bool)
(declare-fun inv_main4 (Heap Addr Int Int) Bool)
(declare-fun inv_main9 (Heap Addr Int Int Addr) Bool)
(assert (inv_main2 emptyHeap))
(assert (forall ((var0 Int) (var1 Addr) (var2 Int) (var3 Int) (var4 Addr) (var5 Heap)) (or (not (and (and (inv_main10 var5 var4 var3 var2 var1) (is-O_node (readHeap var5 var1))) (is-O_node (readHeap var5 var1)))) (inv_main9 (writeHeap var5 var1 (O_node (node (next (getnode (readHeap var5 var1))) var0))) var4 var3 var2 var1))))
(assert (forall ((var0 Addr) (var1 Int) (var2 Int) (var3 Addr) (var4 Heap)) (or (not (inv_main23 var4 var3 var2 var1 var0)) (inv_main22 var4 var3 var2 var1 var0))))
(assert (forall ((var0 Addr) (var1 Int) (var2 Addr) (var3 Heap) (var4 Int) (var5 Int) (var6 Addr) (var7 Int) (var8 Int) (var9 Addr) (var10 Heap)) (or (not (and (and (and (and (and (and (and (and (inv_main21 var10 var9 var8 var7 var6) (= var4 (val (getnode (readHeap var10 var6))))) (= var0 var6)) (= var1 var7)) (= var5 var8)) (= var2 var9)) (= var3 var10)) (is-O_node (readHeap var10 var6))) (not (<= 0 (+ (+ (* (- 1) var4) var5) (* (- 1) 1)))))) (inv_main22 var3 var2 var5 var1 var0))))
(assert (forall ((var0 Addr) (var1 Int) (var2 Addr) (var3 Heap) (var4 Int) (var5 Int) (var6 Addr) (var7 Int) (var8 Int) (var9 Addr) (var10 Heap)) (or (not (and (and (and (and (and (and (and (and (inv_main22 var10 var9 var8 var7 var6) (= var5 (val (getnode (readHeap var10 var6))))) (= var0 var6)) (= var4 var7)) (= var1 var8)) (= var2 var9)) (= var3 var10)) (is-O_node (readHeap var10 var6))) (<= 0 (+ (+ (* (- 1) var4) var5) (* (- 1) 1))))) (inv_main27 var3 var2 var1 var4 var0))))
(assert (forall ((var0 Addr) (var1 Int) (var2 Int) (var3 Addr) (var4 Heap)) (or (not (inv_main27 var4 var3 var2 var1 var0)) (inv_main26 var4 var3 var2 var1 var0))))
(assert (forall ((var0 Addr) (var1 Int) (var2 Addr) (var3 Heap) (var4 Int) (var5 Int) (var6 Addr) (var7 Int) (var8 Int) (var9 Addr) (var10 Heap)) (or (not (and (and (and (and (and (and (and (and (inv_main22 var10 var9 var8 var7 var6) (= var5 (val (getnode (readHeap var10 var6))))) (= var0 var6)) (= var4 var7)) (= var1 var8)) (= var2 var9)) (= var3 var10)) (is-O_node (readHeap var10 var6))) (not (<= 0 (+ (+ (* (- 1) var4) var5) (* (- 1) 1)))))) (inv_main26 var3 var2 var1 var4 var0))))
(assert (forall ((var0 Addr) (var1 Int) (var2 Addr) (var3 Heap) (var4 Int) (var5 Int) (var6 Addr) (var7 Int) (var8 Int) (var9 Addr) (var10 Heap)) (or (not (and (and (and (and (and (and (and (and (inv_main21 var10 var9 var8 var7 var6) (= var4 (val (getnode (readHeap var10 var6))))) (= var0 var6)) (= var1 var7)) (= var5 var8)) (= var2 var9)) (= var3 var10)) (is-O_node (readHeap var10 var6))) (<= 0 (+ (+ (* (- 1) var4) var5) (* (- 1) 1))))) (inv_main23 var3 var2 var5 var1 var0))))
(assert (forall ((var0 Addr) (var1 Int) (var2 Int) (var3 Addr) (var4 Heap)) (or (not (and (and (inv_main13 var4 var3 var2 var1 var0) (<= 0 (+ (+ (* (- 1) var1) (val (getnode (readHeap var4 var0)))) (* (- 1) 1)))) (is-O_node (readHeap var4 var0)))) (inv_main17 var4 var3 var2 var1 var0))))
(assert (forall ((var0 Int) (var1 Addr) (var2 Int) (var3 Int) (var4 Addr) (var5 node) (var6 Heap) (var7 Int) (var8 Int) (var9 Addr) (var10 Heap)) (or (not (and (and (and (and (and (and (inv_main4 var10 var9 var8 var7) (not (= var0 0))) (= var1 (newAddr (allocHeap var10 (O_node var5))))) (= var2 var7)) (= var3 var8)) (= var4 var9)) (= var6 (newHeap (allocHeap var10 (O_node var5)))))) (inv_main10 var6 var4 var3 var2 var1))))
(assert (forall ((var0 Int) (var1 Addr) (var2 Int) (var3 Int) (var4 Addr) (var5 Heap) (var6 Addr) (var7 Int) (var8 Int) (var9 Addr) (var10 Heap)) (or (not (and (and (and (and (and (and (and (inv_main14 var10 var9 var8 var7 var6) (= var0 (val (getnode (readHeap var10 var6))))) (= var1 var6)) (= var2 var7)) (= var3 var8)) (= var4 var9)) (= var5 var10)) (is-O_node (readHeap var10 var6)))) (inv_main13 var5 var4 var0 var2 var1))))
(assert (forall ((var0 Addr) (var1 Int) (var2 Int) (var3 Addr) (var4 Heap)) (or (not (and (and (inv_main11 var4 var3 var2 var1 var0) (not (<= 0 (+ (+ (* (- 1) (val (getnode (readHeap var4 var0)))) var2) (* (- 1) 1))))) (is-O_node (readHeap var4 var0)))) (inv_main13 var4 var3 var2 var1 var0))))
(assert (forall ((var0 Addr) (var1 Int) (var2 Int) (var3 Addr) (var4 Heap)) (or (not (and (and (inv_main11 var4 var3 var2 var1 var0) (<= 0 (+ (+ (* (- 1) (val (getnode (readHeap var4 var0)))) var2) (* (- 1) 1)))) (is-O_node (readHeap var4 var0)))) (inv_main14 var4 var3 var2 var1 var0))))
(assert (forall ((var0 Addr) (var1 Int) (var2 Int) (var3 Addr) (var4 Heap) (var5 Addr) (var6 Int) (var7 Int) (var8 Addr) (var9 Heap)) (or (not (and (and (and (and (and (and (and (inv_main9 var9 var8 var7 var6 var5) (= var0 var5)) (= var1 var6)) (= var2 var7)) (= var3 var8)) (= var4 (writeHeap var9 var5 (O_node (node var8 (val (getnode (readHeap var9 var5)))))))) (is-O_node (readHeap var9 var5))) (is-O_node (readHeap var9 var5)))) (inv_main11 var4 var0 var2 var1 var0))))
(assert (forall ((var0 Int) (var1 Addr) (var2 Int) (var3 Int) (var4 Addr) (var5 Heap) (var6 Addr) (var7 Int) (var8 Int) (var9 Addr) (var10 Heap)) (or (not (and (and (and (and (and (and (and (inv_main17 var10 var9 var8 var7 var6) (= var0 (val (getnode (readHeap var10 var6))))) (= var1 var6)) (= var2 var7)) (= var3 var8)) (= var4 var9)) (= var5 var10)) (is-O_node (readHeap var10 var6)))) (inv_main4 var5 var4 var3 var0))))
(assert (forall ((var0 Addr) (var1 Int) (var2 Int) (var3 Addr) (var4 Heap)) (or (not (and (and (inv_main13 var4 var3 var2 var1 var0) (not (<= 0 (+ (+ (* (- 1) var1) (val (getnode (readHeap var4 var0)))) (* (- 1) 1))))) (is-O_node (readHeap var4 var0)))) (inv_main4 var4 var3 var2 var1))))
(assert (forall ((var0 Addr) (var1 Heap) (var2 Heap)) (or (not (and (and (inv_main2 var2) (= var0 nullAddr)) (= var1 var2))) (inv_main4 var1 var0 2147483647 (* (- 1) 2147483647)))))
(assert (forall ((var0 Addr) (var1 Int) (var2 Int) (var3 Addr) (var4 Heap) (var5 Addr) (var6 Addr) (var7 Int) (var8 Int) (var9 Addr) (var10 Heap)) (or (not (and (and (and (and (and (and (and (and (inv_main26 var10 var9 var8 var7 var6) (= var5 (next (getnode (readHeap var10 var6))))) (= var0 var6)) (= var1 var7)) (= var2 var8)) (= var3 var9)) (= var4 var10)) (is-O_node (readHeap var10 var6))) (not (= var5 nullAddr)))) (inv_main21 var4 var3 var2 var1 var5))))
(assert (forall ((var0 Int) (var1 Int) (var2 Int) (var3 Addr) (var4 Heap)) (or (not (and (and (inv_main4 var4 var3 var2 var1) (= var0 0)) (not (= var3 nullAddr)))) (inv_main21 var4 var3 var2 var1 var3))))
(assert (forall ((var0 Addr) (var1 Int) (var2 Int) (var3 Addr) (var4 Heap)) (not (and (inv_main10 var4 var3 var2 var1 var0) (not (is-O_node (readHeap var4 var0)))))))
(assert (forall ((var0 Addr) (var1 Int) (var2 Int) (var3 Addr) (var4 Heap)) (not (and (and (inv_main10 var4 var3 var2 var1 var0) (not (is-O_node (readHeap var4 var0)))) (is-O_node (readHeap var4 var0))))))
(assert (forall ((var0 Addr) (var1 Int) (var2 Int) (var3 Addr) (var4 Heap)) (not (and (inv_main9 var4 var3 var2 var1 var0) (not (is-O_node (readHeap var4 var0)))))))
(assert (forall ((var0 Addr) (var1 Int) (var2 Int) (var3 Addr) (var4 Heap)) (not (and (and (inv_main9 var4 var3 var2 var1 var0) (not (is-O_node (readHeap var4 var0)))) (is-O_node (readHeap var4 var0))))))
(assert (forall ((var0 Addr) (var1 Int) (var2 Int) (var3 Addr) (var4 Heap)) (not (and (inv_main11 var4 var3 var2 var1 var0) (not (is-O_node (readHeap var4 var0)))))))
(assert (forall ((var0 Addr) (var1 Int) (var2 Int) (var3 Addr) (var4 Heap)) (not (and (inv_main14 var4 var3 var2 var1 var0) (not (is-O_node (readHeap var4 var0)))))))
(assert (forall ((var0 Addr) (var1 Int) (var2 Int) (var3 Addr) (var4 Heap)) (not (and (inv_main13 var4 var3 var2 var1 var0) (not (is-O_node (readHeap var4 var0)))))))
(assert (forall ((var0 Addr) (var1 Int) (var2 Int) (var3 Addr) (var4 Heap)) (not (and (inv_main17 var4 var3 var2 var1 var0) (not (is-O_node (readHeap var4 var0)))))))
(assert (forall ((var0 Addr) (var1 Int) (var2 Int) (var3 Addr) (var4 Heap)) (not (and (inv_main21 var4 var3 var2 var1 var0) (not (is-O_node (readHeap var4 var0)))))))
(assert (forall ((var0 Addr) (var1 Int) (var2 Int) (var3 Addr) (var4 Heap)) (not (inv_main23 var4 var3 var2 var1 var0))))
(assert (forall ((var0 Addr) (var1 Int) (var2 Int) (var3 Addr) (var4 Heap)) (not (and (inv_main22 var4 var3 var2 var1 var0) (not (is-O_node (readHeap var4 var0)))))))
(assert (forall ((var0 Addr) (var1 Int) (var2 Int) (var3 Addr) (var4 Heap)) (not (inv_main27 var4 var3 var2 var1 var0))))
(assert (forall ((var0 Addr) (var1 Int) (var2 Int) (var3 Addr) (var4 Heap)) (not (and (inv_main26 var4 var3 var2 var1 var0) (not (is-O_node (readHeap var4 var0)))))))
(check-sat)
